certificates/rado_a9_c157_N24.cnf
c Rad2 upper bound instance: x1 + 9*x2 - x3 = 157, interval [1,24]
p cnf 24 124
1 6 18 0
-1 -6 -18 0
1 15 19 0
-1 -15 -19 0
1 20 24 0
-1 -20 -24 0
2 7 18 0
-2 -7 -18 0
2 16 19 0
-2 -16 -19 0
3 8 18 0
-3 -8 -18 0
3 17 19 0
-3 -17 -19 0
4 9 18 0
-4 -9 -18 0
4 18 19 0
-4 -18 -19 0
1 5 17 0
-1 -5 -17 0
5 10 18 0
-5 -10 -18 0
5 19 0
-5 -19 0
2 6 17 0
-2 -6 -17 0
6 11 18 0
-6 -11 -18 0
6 19 20 0
-6 -19 -20 0
3 7 17 0
-3 -7 -17 0
7 12 18 0
-7 -12 -18 0
7 19 21 0
-7 -19 -21 0
4 8 17 0
-4 -8 -17 0
8 13 18 0
-8 -13 -18 0
8 19 22 0
-8 -19 -22 0
5 9 17 0
-5 -9 -17 0
9 14 18 0
-9 -14 -18 0
9 19 23 0
-9 -19 -23 0
6 10 17 0
-6 -10 -17 0
10 15 18 0
-10 -15 -18 0
10 19 24 0
-10 -19 -24 0
7 11 17 0
-7 -11 -17 0
11 16 18 0
-11 -16 -18 0
8 12 17 0
-8 -12 -17 0
12 17 18 0
-12 -17 -18 0
9 13 17 0
-9 -13 -17 0
13 18 0
-13 -18 0
1 14 16 0
-1 -14 -16 0
10 14 17 0
-10 -14 -17 0
14 18 19 0
-14 -18 -19 0
2 15 16 0
-2 -15 -16 0
11 15 17 0
-11 -15 -17 0
15 18 20 0
-15 -18 -20 0
3 16 0
-3 -16 0
12 16 17 0
-12 -16 -17 0
16 18 21 0
-16 -18 -21 0
4 16 17 0
-4 -16 -17 0
13 17 0
-13 -17 0
17 18 22 0
-17 -18 -22 0
5 16 18 0
-5 -16 -18 0
14 17 18 0
-14 -17 -18 0
18 23 0
-18 -23 0
6 16 19 0
-6 -16 -19 0
15 17 19 0
-15 -17 -19 0
18 19 24 0
-18 -19 -24 0
7 16 20 0
-7 -16 -20 0
16 17 20 0
-16 -17 -20 0
8 16 21 0
-8 -16 -21 0
17 21 0
-17 -21 0
9 16 22 0
-9 -16 -22 0
1 15 23 0
-1 -15 -23 0
10 16 23 0
-10 -16 -23 0
17 19 23 0
-17 -19 -23 0
2 15 24 0
-2 -15 -24 0
11 16 24 0
-11 -16 -24 0
17 20 24 0
-17 -20 -24 0
