certificates/rado_a9_c157_N24.drat
-20 18 -24 0
18 -24 0
d -20 18 -24 0
-24 0
20 -18 0
-18 0
13 0
23 0
19 0
-17 0
-5 0
-9 0
21 0
20 0
22 0
12 0
14 0
1 0
0
